
Gurobi 11.0.3 (linux64) logging started Thu Nov 21 18:30:35 2024

Set parameter LogFile to value "/home/yihong/Coding/OR_SUC/SUC_results_bigM100000_thread4/case24_ieee_rts_theta0.5_epsilon0.025_gurobi_seed80000_num_gen100_N_WDR100_load_scaling_factor1_proposed_T28quadra_cost.txt"
Set parameter TimeLimit to value 3600
Gurobi Optimizer version 11.0.3 build v11.0.3rc0 (linux64 - "Ubuntu 20.04.6 LTS")

CPU model: AMD EPYC 7532 32-Core Processor, instruction set [SSE2|AVX|AVX2]
Thread count: 64 physical cores, 128 logical processors, using up to 4 threads

Optimize a model with 60682 rows, 34821 columns and 827226 nonzeros
Model fingerprint: 0x6205345c
Model has 2800 quadratic constraints
Variable types: 32021 continuous, 2800 integer (2800 binary)
Coefficient statistics:
  Matrix range     [3e-04, 2e+03]
  QMatrix range    [2e-03, 8e-03]
  QLMatrix range   [6e-02, 6e+01]
  Objective range  [1e+00, 1e+00]
  Bounds range     [1e+00, 1e+00]
  RHS range        [1e+00, 9e+03]
Presolve removed 49092 rows and 15003 columns
Presolve time: 0.31s
Presolved: 11590 rows, 19818 columns, 73736 nonzeros
Presolved model has 2800 quadratic constraint(s)
Variable types: 17018 continuous, 2800 integer (2800 binary)

Root relaxation: objective 8.188275e+04, 9741 iterations, 0.28 seconds (0.40 work units)

    Nodes    |    Current Node    |     Objective Bounds      |     Work
 Expl Unexpl |  Obj  Depth IntInf | Incumbent    BestBd   Gap | It/Node Time

H    0     0                    785374.15899 81882.7527  89.6%     -    0s
*    0     0               0    785374.15899 81882.7527  89.6%     -    0s
     0     0 503429.978    0  710 785374.159 503429.978  35.9%     -    1s
     0     0 754805.561    0  467 785374.159 754805.561  3.89%     -    2s
     0     0 754902.789    0  105 785374.159 754902.789  3.88%     -    2s
     0     0 755057.917    0  106 785374.159 755057.917  3.86%     -    2s
     0     0 755061.805    0  106 785374.159 755061.805  3.86%     -    2s
     0     0 755061.805    0  106 785374.159 755061.805  3.86%     -    2s
     0     0 755062.558    0  106 785374.159 755062.558  3.86%     -    2s
     0     0 755062.694    0  106 785374.159 755062.694  3.86%     -    2s
     0     2 755062.694    0  106 785374.159 755062.694  3.86%     -    4s
    30    33 755080.562    8   57 785374.159 755068.124  3.86%  48.5    5s
H  242   270                    755632.01877 755068.124  0.07%  25.8    7s
*  242   270              59    755632.01877 755068.124  0.07%  25.8    7s

Cutting planes:
  Gomory: 31
  Lift-and-project: 13
  Implied bound: 304
  MIR: 35
  Flow cover: 86
  RLT: 392
  Relax-and-lift: 86

Explored 275 nodes (32669 simplex iterations) in 8.43 seconds (10.37 work units)
Thread count was 4 (of 128 available processors)

Solution count 3: 755632 755632 785374 

Optimal solution found (tolerance 1.00e-03)
Warning: max constraint violation (1.3636e-07) exceeds tolerance
Best objective 7.556320187678e+05, best bound 7.550681242089e+05, gap 0.0746%
